
  32    4
  10   10   10   10

   0   0   0   0   0   3 2 3 31 
   4   1   1   1   0   2 30 4 
   4   4   4   8   0   2 30 4 
   1   0   5   3   1   2 8 5 
   5   5   4   5   0   2 12 6 
   3   3   3   0   4   2 29 7 
   6   4   0   3   6   2 20 9 
   1   5   6   4   0   3 15 12 10 
   3   5   0   2   4   2 15 10 
   1   4   0   3   4   2 23 11 
   7   5   0   4   4   2 19 13 
   6   8   0   4   5   2 23 13 
   1   5   3   4   0   1 14 
   1   0   4   3   3   2 28 16 
   2   7   0   7   8   4 28 27 22 18 
   2   2   3   1   0   1 17 
   3   2   7   5   0   3 27 22 18 
   6   0   5   5   5   3 26 25 21 
   2   3   3   6   0   1 21 
   4   1   3   3   0   1 21 
   1   6   2   4   0   1 24 
   6   4   2   4   0   1 25 
   6   0   6   4   3   1 28 
   8   3   0   2   4   1 32
   8   6   0   6   6   1 32
   3   1   4   0   3   1 32
   6   4   4   0   1   1 32
   8   0   4   4   4   1 32
   1   4   4   4   0   1 32
   4   0   7   4   3   1 32
   1   0   4   5   4   1 32
   0   0   0   0   0   0 
